70
    1    38    37
    2    50    48
    3    13    12
    4    10     7
    5    52    52
    6    11    17
    7    24    21
    8    42    41
    9    43    49
   10     6     2
   11    58    51
   12     6     5
   13    34    34
   14    55    56
   15    48    42
   16    31    32
   17    24    23
   18    19    24
   19    61    57
   20    26    32
   21    53    51
   22    68    67
   23    64    64
   24    14     8
   25    64    62
   26    52    48
   27    29    34
   28    34    29
   29    21    19
   30    39    39
   31    50    57
   32    16    19
   33     6     9
   34    17    23
   35     6     4
   36    20    21
   37    46    50
   38    45    44
   39    57    56
   40    11     6
   41    43    49
   42    35    33
   43    50    50
   44    44    51
   45    56    55
   46    72    70
   47    18    19
   48    22    25
   49    37    41
   50     7     4
   51    34    30
   52    64    60
   53    57    53
   54    30    32
   55    69    62
   56    13    19
   57    60    53
   58    54    48
   59    39    34
   60    58    56
   61    12     6
   62    69    70
   63    74    67
   64    52    52
   65    25    19
   66    43    50
   67    29    24
   68    64    64
   69    31    24
   70    21    19
71
